c *********************************
c * Circuit generated by BenCGen
c *
c * RippleCarryAdder_32_32_32_InOutT
c *
c * Ports with 1 gate(s): 1
c * Ports with 2 gate(s): 161
c * Total gates: 162
c *********************************
p cnf 226 549
1 99 0
-1 -99 0
1 -98 0
99 -98 0
-1 -99 98 0
1 33 -101 0
-1 33 101 0
1 -33 101 0
-1 -33 -101 0
101 98 -65 0
-101 98 65 0
101 -98 65 0
-101 -98 -65 0
98 -102 0
101 -102 0
-98 -101 102 0
33 -103 0
1 -103 0
-33 -1 103 0
-102 100 0
-103 100 0
102 103 -100 0
2 34 -105 0
-2 34 105 0
2 -34 105 0
-2 -34 -105 0
105 100 -66 0
-105 100 66 0
105 -100 66 0
-105 -100 -66 0
100 -106 0
105 -106 0
-100 -105 106 0
34 -107 0
2 -107 0
-34 -2 107 0
-106 104 0
-107 104 0
106 107 -104 0
3 35 -109 0
-3 35 109 0
3 -35 109 0
-3 -35 -109 0
109 104 -67 0
-109 104 67 0
109 -104 67 0
-109 -104 -67 0
104 -110 0
109 -110 0
-104 -109 110 0
35 -111 0
3 -111 0
-35 -3 111 0
-110 108 0
-111 108 0
110 111 -108 0
4 36 -113 0
-4 36 113 0
4 -36 113 0
-4 -36 -113 0
113 108 -68 0
-113 108 68 0
113 -108 68 0
-113 -108 -68 0
108 -114 0
113 -114 0
-108 -113 114 0
36 -115 0
4 -115 0
-36 -4 115 0
-114 112 0
-115 112 0
114 115 -112 0
5 37 -117 0
-5 37 117 0
5 -37 117 0
-5 -37 -117 0
117 112 -69 0
-117 112 69 0
117 -112 69 0
-117 -112 -69 0
112 -118 0
117 -118 0
-112 -117 118 0
37 -119 0
5 -119 0
-37 -5 119 0
-118 116 0
-119 116 0
118 119 -116 0
6 38 -121 0
-6 38 121 0
6 -38 121 0
-6 -38 -121 0
121 116 -70 0
-121 116 70 0
121 -116 70 0
-121 -116 -70 0
116 -122 0
121 -122 0
-116 -121 122 0
38 -123 0
6 -123 0
-38 -6 123 0
-122 120 0
-123 120 0
122 123 -120 0
7 39 -125 0
-7 39 125 0
7 -39 125 0
-7 -39 -125 0
125 120 -71 0
-125 120 71 0
125 -120 71 0
-125 -120 -71 0
120 -126 0
125 -126 0
-120 -125 126 0
39 -127 0
7 -127 0
-39 -7 127 0
-126 124 0
-127 124 0
126 127 -124 0
8 40 -129 0
-8 40 129 0
8 -40 129 0
-8 -40 -129 0
129 124 -72 0
-129 124 72 0
129 -124 72 0
-129 -124 -72 0
124 -130 0
129 -130 0
-124 -129 130 0
40 -131 0
8 -131 0
-40 -8 131 0
-130 128 0
-131 128 0
130 131 -128 0
9 41 -133 0
-9 41 133 0
9 -41 133 0
-9 -41 -133 0
133 128 -73 0
-133 128 73 0
133 -128 73 0
-133 -128 -73 0
128 -134 0
133 -134 0
-128 -133 134 0
41 -135 0
9 -135 0
-41 -9 135 0
-134 132 0
-135 132 0
134 135 -132 0
10 42 -137 0
-10 42 137 0
10 -42 137 0
-10 -42 -137 0
137 132 -74 0
-137 132 74 0
137 -132 74 0
-137 -132 -74 0
132 -138 0
137 -138 0
-132 -137 138 0
42 -139 0
10 -139 0
-42 -10 139 0
-138 136 0
-139 136 0
138 139 -136 0
11 43 -141 0
-11 43 141 0
11 -43 141 0
-11 -43 -141 0
141 136 -75 0
-141 136 75 0
141 -136 75 0
-141 -136 -75 0
136 -142 0
141 -142 0
-136 -141 142 0
43 -143 0
11 -143 0
-43 -11 143 0
-142 140 0
-143 140 0
142 143 -140 0
12 44 -145 0
-12 44 145 0
12 -44 145 0
-12 -44 -145 0
145 140 -76 0
-145 140 76 0
145 -140 76 0
-145 -140 -76 0
140 -146 0
145 -146 0
-140 -145 146 0
44 -147 0
12 -147 0
-44 -12 147 0
-146 144 0
-147 144 0
146 147 -144 0
13 45 -149 0
-13 45 149 0
13 -45 149 0
-13 -45 -149 0
149 144 -77 0
-149 144 77 0
149 -144 77 0
-149 -144 -77 0
144 -150 0
149 -150 0
-144 -149 150 0
45 -151 0
13 -151 0
-45 -13 151 0
-150 148 0
-151 148 0
150 151 -148 0
14 46 -153 0
-14 46 153 0
14 -46 153 0
-14 -46 -153 0
153 148 -78 0
-153 148 78 0
153 -148 78 0
-153 -148 -78 0
148 -154 0
153 -154 0
-148 -153 154 0
46 -155 0
14 -155 0
-46 -14 155 0
-154 152 0
-155 152 0
154 155 -152 0
15 47 -157 0
-15 47 157 0
15 -47 157 0
-15 -47 -157 0
157 152 -79 0
-157 152 79 0
157 -152 79 0
-157 -152 -79 0
152 -158 0
157 -158 0
-152 -157 158 0
47 -159 0
15 -159 0
-47 -15 159 0
-158 156 0
-159 156 0
158 159 -156 0
16 48 -161 0
-16 48 161 0
16 -48 161 0
-16 -48 -161 0
161 156 -80 0
-161 156 80 0
161 -156 80 0
-161 -156 -80 0
156 -162 0
161 -162 0
-156 -161 162 0
48 -163 0
16 -163 0
-48 -16 163 0
-162 160 0
-163 160 0
162 163 -160 0
17 49 -165 0
-17 49 165 0
17 -49 165 0
-17 -49 -165 0
165 160 -81 0
-165 160 81 0
165 -160 81 0
-165 -160 -81 0
160 -166 0
165 -166 0
-160 -165 166 0
49 -167 0
17 -167 0
-49 -17 167 0
-166 164 0
-167 164 0
166 167 -164 0
18 50 -169 0
-18 50 169 0
18 -50 169 0
-18 -50 -169 0
169 164 -82 0
-169 164 82 0
169 -164 82 0
-169 -164 -82 0
164 -170 0
169 -170 0
-164 -169 170 0
50 -171 0
18 -171 0
-50 -18 171 0
-170 168 0
-171 168 0
170 171 -168 0
19 51 -173 0
-19 51 173 0
19 -51 173 0
-19 -51 -173 0
173 168 -83 0
-173 168 83 0
173 -168 83 0
-173 -168 -83 0
168 -174 0
173 -174 0
-168 -173 174 0
51 -175 0
19 -175 0
-51 -19 175 0
-174 172 0
-175 172 0
174 175 -172 0
20 52 -177 0
-20 52 177 0
20 -52 177 0
-20 -52 -177 0
177 172 -84 0
-177 172 84 0
177 -172 84 0
-177 -172 -84 0
172 -178 0
177 -178 0
-172 -177 178 0
52 -179 0
20 -179 0
-52 -20 179 0
-178 176 0
-179 176 0
178 179 -176 0
21 53 -181 0
-21 53 181 0
21 -53 181 0
-21 -53 -181 0
181 176 -85 0
-181 176 85 0
181 -176 85 0
-181 -176 -85 0
176 -182 0
181 -182 0
-176 -181 182 0
53 -183 0
21 -183 0
-53 -21 183 0
-182 180 0
-183 180 0
182 183 -180 0
22 54 -185 0
-22 54 185 0
22 -54 185 0
-22 -54 -185 0
185 180 -86 0
-185 180 86 0
185 -180 86 0
-185 -180 -86 0
180 -186 0
185 -186 0
-180 -185 186 0
54 -187 0
22 -187 0
-54 -22 187 0
-186 184 0
-187 184 0
186 187 -184 0
23 55 -189 0
-23 55 189 0
23 -55 189 0
-23 -55 -189 0
189 184 -87 0
-189 184 87 0
189 -184 87 0
-189 -184 -87 0
184 -190 0
189 -190 0
-184 -189 190 0
55 -191 0
23 -191 0
-55 -23 191 0
-190 188 0
-191 188 0
190 191 -188 0
24 56 -193 0
-24 56 193 0
24 -56 193 0
-24 -56 -193 0
193 188 -88 0
-193 188 88 0
193 -188 88 0
-193 -188 -88 0
188 -194 0
193 -194 0
-188 -193 194 0
56 -195 0
24 -195 0
-56 -24 195 0
-194 192 0
-195 192 0
194 195 -192 0
25 57 -197 0
-25 57 197 0
25 -57 197 0
-25 -57 -197 0
197 192 -89 0
-197 192 89 0
197 -192 89 0
-197 -192 -89 0
192 -198 0
197 -198 0
-192 -197 198 0
57 -199 0
25 -199 0
-57 -25 199 0
-198 196 0
-199 196 0
198 199 -196 0
26 58 -201 0
-26 58 201 0
26 -58 201 0
-26 -58 -201 0
201 196 -90 0
-201 196 90 0
201 -196 90 0
-201 -196 -90 0
196 -202 0
201 -202 0
-196 -201 202 0
58 -203 0
26 -203 0
-58 -26 203 0
-202 200 0
-203 200 0
202 203 -200 0
27 59 -205 0
-27 59 205 0
27 -59 205 0
-27 -59 -205 0
205 200 -91 0
-205 200 91 0
205 -200 91 0
-205 -200 -91 0
200 -206 0
205 -206 0
-200 -205 206 0
59 -207 0
27 -207 0
-59 -27 207 0
-206 204 0
-207 204 0
206 207 -204 0
28 60 -209 0
-28 60 209 0
28 -60 209 0
-28 -60 -209 0
209 204 -92 0
-209 204 92 0
209 -204 92 0
-209 -204 -92 0
204 -210 0
209 -210 0
-204 -209 210 0
60 -211 0
28 -211 0
-60 -28 211 0
-210 208 0
-211 208 0
210 211 -208 0
29 61 -213 0
-29 61 213 0
29 -61 213 0
-29 -61 -213 0
213 208 -93 0
-213 208 93 0
213 -208 93 0
-213 -208 -93 0
208 -214 0
213 -214 0
-208 -213 214 0
61 -215 0
29 -215 0
-61 -29 215 0
-214 212 0
-215 212 0
214 215 -212 0
30 62 -217 0
-30 62 217 0
30 -62 217 0
-30 -62 -217 0
217 212 -94 0
-217 212 94 0
217 -212 94 0
-217 -212 -94 0
212 -218 0
217 -218 0
-212 -217 218 0
62 -219 0
30 -219 0
-62 -30 219 0
-218 216 0
-219 216 0
218 219 -216 0
31 63 -221 0
-31 63 221 0
31 -63 221 0
-31 -63 -221 0
221 216 -95 0
-221 216 95 0
221 -216 95 0
-221 -216 -95 0
216 -222 0
221 -222 0
-216 -221 222 0
63 -223 0
31 -223 0
-63 -31 223 0
-222 220 0
-223 220 0
222 223 -220 0
32 64 -224 0
-32 64 224 0
32 -64 224 0
-32 -64 -224 0
224 220 -96 0
-224 220 96 0
224 -220 96 0
-224 -220 -96 0
220 -225 0
224 -225 0
-220 -224 225 0
64 -226 0
32 -226 0
-64 -32 226 0
-225 97 0
-226 97 0
225 226 -97 0
